/*********************************************
 * OPL 12.6.1.0 Data
 * Author: Administrator
 * Creation Date: 2018-9-9 at обнГ12:14:09
 *********************************************/
 nbResources=7;
 nbItems=12;
 capacity=[18209,7692,1333,924,26638,61188,13360];
 value=[96,76,56,11,86,10,66,86,83,12,9,81];
 use=[[19,1,10,1,1,14,152,11,1,1,1,1],
      [0,4,53,0,0,80,0,4,5,0,0,0],
      [4,660,3,0,30,0,3,0,4,90,0,0],
      [7,0,18,6,770,330,7,0,0,6,0,0],
      [0,20,0,4,52,3,0,0,0,5,4,0],
      [0,0,40,70,4,63,0,0,60,0,4,0],
      [0,32,0,0,0,5,0,3,0,660,0,9]];
